Instance: Data/Instances_txt/inst_60_30_4.txt
SetUpTime: 31.215659856796265

Gurobi 10.0.1 (mac64[x86]) logging started Di  1 Aug 16:33:10 2023

Set parameter LogFile to value "Output/MILP_inst_60_30_4_2023-08-01_16-28-50.txt"
Set parameter TimeLimit to value 2700

Gurobi 10.0.1 (mac64[x86]) logging started Di  1 Aug 16:33:10 2023

Set parameter LogFile to value "Output/MILP_inst_60_30_4_2023-08-01_16-28-50.txt"
Gurobi Optimizer version 10.0.1 build v10.0.1rc0 (mac64[x86])

CPU model: Intel(R) Core(TM) i5-1038NG7 CPU @ 2.00GHz
Thread count: 4 physical cores, 8 logical processors, using up to 8 threads

Optimize a model with 121 rows, 37981 columns and 337915 nonzeros
Model fingerprint: 0x69e25c98
Variable types: 0 continuous, 37981 integer (0 binary)
Coefficient statistics:
  Matrix range     [1e+00, 1e+00]
  Objective range  [4e+00, 6e+03]
  Bounds range     [1e+00, 1e+00]
  RHS range        [1e+00, 1e+00]
Presolve removed 0 rows and 36 columns
Presolve time: 0.88s
Presolved: 121 rows, 37945 columns, 337474 nonzeros
Variable types: 0 continuous, 37945 integer (37945 binary)

Root relaxation: objective 7.570775e+03, 2237 iterations, 1.49 seconds (2.51 work units)

    Nodes    |    Current Node    |     Objective Bounds      |     Work
 Expl Unexpl |  Obj  Depth IntInf | Incumbent    BestBd   Gap | It/Node Time

     0     0 7570.77527    0   83          - 7570.77527      -     -    2s
     0     0 7574.04286    0  101          - 7574.04286      -     -    3s
H    0     0                    7934.0000000 7574.04286  4.54%     -    3s
     0     0 7582.19318    0   95 7934.00000 7582.19318  4.43%     -    4s
     0     0 7671.21463    0   90 7934.00000 7671.21463  3.31%     -   10s
     0     0 7684.41001    0   93 7934.00000 7684.41001  3.15%     -   10s
     0     0 7688.85383    0   86 7934.00000 7688.85383  3.09%     -   10s
     0     0 7692.92378    0   87 7934.00000 7692.92378  3.04%     -   10s
     0     0 7695.46908    0   86 7934.00000 7695.46908  3.01%     -   10s
     0     0 7695.69894    0   77 7934.00000 7695.69894  3.00%     -   10s
     0     0 7695.96078    0   75 7934.00000 7695.96078  3.00%     -   10s
     0     0 7696.20888    0   77 7934.00000 7696.20888  3.00%     -   10s
     0     0 7696.54202    0   79 7934.00000 7696.54202  2.99%     -   10s
     0     0 7696.68661    0   76 7934.00000 7696.68661  2.99%     -   10s
     0     0 7696.72917    0   59 7934.00000 7696.72917  2.99%     -   10s
     0     0 7769.56851    0  103 7934.00000 7769.56851  2.07%     -   11s
     0     0 7790.93548    0   68 7934.00000 7790.93548  1.80%     -   11s
     0     0 7796.84314    0   88 7934.00000 7796.84314  1.73%     -   11s
     0     0 7802.10843    0   80 7934.00000 7802.10843  1.66%     -   11s
*    0     0               0    7812.0000000 7812.00000  0.00%     -   12s

Explored 1 nodes (6849 simplex iterations) in 12.01 seconds (12.07 work units)
Thread count was 8 (of 8 available processors)

Solution count 2: 7812 7934 

Optimal solution found (tolerance 1.00e-04)
Best objective 7.812000000000e+03, best bound 7.812000000000e+03, gap 0.0000%

User-callback calls 887, time in user-callback 0.00 sec

=========================

OUTPUT STATISTICS
Relaxed: false
Time since start: 44.23437285423279
SetUpTime: 31.215659856796265
Objective value: 7812.0
Number of variables: 37981
Solving time: 12.996785879135132
